certificates/rado_a13_c79_N24.cnf
c Rad2 upper bound instance: x1 + 13*x2 - x3 = 79, interval [1,24]
p cnf 24 90
1 7 13 0
-1 -7 -13 0
1 2 6 0
-1 -2 -6 0
2 7 14 0
-2 -7 -14 0
2 3 6 0
-2 -3 -6 0
3 7 15 0
-3 -7 -15 0
3 4 6 0
-3 -4 -6 0
4 7 16 0
-4 -7 -16 0
4 5 6 0
-4 -5 -6 0
5 7 17 0
-5 -7 -17 0
5 6 0
-5 -6 0
6 7 18 0
-6 -7 -18 0
6 7 0
-6 -7 0
7 19 0
-7 -19 0
6 7 8 0
-6 -7 -8 0
7 8 20 0
-7 -8 -20 0
6 8 9 0
-6 -8 -9 0
7 9 21 0
-7 -9 -21 0
6 9 10 0
-6 -9 -10 0
7 10 22 0
-7 -10 -22 0
6 10 11 0
-6 -10 -11 0
7 11 23 0
-7 -11 -23 0
6 11 12 0
-6 -11 -12 0
7 12 24 0
-7 -12 -24 0
6 12 13 0
-6 -12 -13 0
6 13 14 0
-6 -13 -14 0
1 5 15 0
-1 -5 -15 0
6 14 15 0
-6 -14 -15 0
2 5 16 0
-2 -5 -16 0
6 15 16 0
-6 -15 -16 0
3 5 17 0
-3 -5 -17 0
6 16 17 0
-6 -16 -17 0
4 5 18 0
-4 -5 -18 0
6 17 18 0
-6 -17 -18 0
5 19 0
-5 -19 0
6 18 19 0
-6 -18 -19 0
5 6 20 0
-5 -6 -20 0
6 19 20 0
-6 -19 -20 0
5 7 21 0
-5 -7 -21 0
6 20 21 0
-6 -20 -21 0
5 8 22 0
-5 -8 -22 0
6 21 22 0
-6 -21 -22 0
5 9 23 0
-5 -9 -23 0
6 22 23 0
-6 -22 -23 0
5 10 24 0
-5 -10 -24 0
6 23 24 0
-6 -23 -24 0
