certificates/rado_a13_c79_N24.drat
-23 -24 0
d -23 -6 -24 0
11 -24 0
-7 -24 0
-24 0
7 0
-6 0
-19 0
5 0
23 0
20 0
18 0
-9 0
-17 0
-21 0
-11 0
-8 0
-4 0
10 0
0
